(set-info :smt-lib-version 2.6)
(set-logic ALIA)
(set-info :source |
Generated by the tool Ultimate Automizer [1,2] which implements
an automata theoretic approach [3] to software verification.

This SMT script belongs to a set of SMT scripts that was generated by
applying Ultimate Automizer to benchmarks [4] from the SV-COMP 2023 [5,6].
This script may not contain all SMT commands that Ultimate Automizer
issued. In order to meet the restrictions for SMT-COMP benchmarks 
we dropped the commands for getting values (resp. models), 
unsatisfiable cores, and interpolants.

2023-03-21, Matthias Heizmann (heizmann@informatik.uni-freiburg.de)

[1] https://ultimate.informatik.uni-freiburg.de/automizer/
[2] Matthias Heizmann, Max Barth, Daniel Dietsch, Leonard Fichtner,
     Jochen Hoenicke, Dominik Klumpp, Mehdi Naouar, Tanja Schindler,
     Frank Schüssele, Andreas Podelski: Ultimate Automizer and the
     CommuHash Normal Form (Competition Contribution). TACAS 2023
[3] Matthias Heizmann, Jochen Hoenicke, Andreas Podelski: Software Model
     Checking for People Who Love Automata. CAV 2013
[4] https://github.com/sosy-lab/sv-benchmarks
[5] Dirk Beyer: Competition on Software Verification and
     Witness Validation: SV-COMP 2023.  TACAS 2023
[6] https://sv-comp.sosy-lab.org/2023/
|)
(set-info :license "https://creativecommons.org/licenses/by/4.0/")
(set-info :category "industrial")
(set-info :status unknown)
(declare-fun ~unnamed0~0~P_ALL () Int)
(declare-fun ~unnamed0~0~P_PID () Int)
(declare-fun ~unnamed0~0~P_PGID () Int)
(assert (= ~unnamed0~0~P_ALL 0))
(assert (= ~unnamed0~0~P_PID 1))
(assert (= 2 ~unnamed0~0~P_PGID))
(declare-fun |#memory_$Pointer$.base| () (Array Int (Array Int Int)))
(declare-fun |ULTIMATE.start_main_~head~0#1.offset| () Int)
(declare-fun |#memory_$Pointer$.offset| () (Array Int (Array Int Int)))
(declare-fun |ULTIMATE.start_main_~head~0#1.base| () Int)
(declare-fun |#valid| () (Array Int Int))
(assert (let ((.cse2 (+ |ULTIMATE.start_main_~head~0#1.offset| 16)) (.cse3 (select |#memory_$Pointer$.offset| |ULTIMATE.start_main_~head~0#1.base|)) (.cse6 (select |#memory_$Pointer$.base| |ULTIMATE.start_main_~head~0#1.base|))) (and (forall ((|v_ULTIMATE.start_main_~x~0#1.offset_23| Int)) (or (forall ((v_ArrVal_459 Int)) (or (forall ((v_ArrVal_458 (Array Int Int)) (|v_ULTIMATE.start_main_#t~malloc11#1.base_7| Int) (v_ArrVal_448 (Array Int Int)) (v_ArrVal_453 (Array Int Int))) (or (not (= (select (store |#valid| v_ArrVal_459 1) |v_ULTIMATE.start_main_#t~malloc11#1.base_7|) 0)) (forall ((v_ArrVal_468 (Array Int Int)) (v_ArrVal_466 (Array Int Int))) (let ((.cse5 (store |#memory_$Pointer$.base| |ULTIMATE.start_main_~head~0#1.base| (store .cse6 |v_ULTIMATE.start_main_~x~0#1.offset_23| v_ArrVal_459)))) (let ((.cse4 (select (select (store .cse5 v_ArrVal_459 v_ArrVal_448) |ULTIMATE.start_main_~head~0#1.base|) |v_ULTIMATE.start_main_~x~0#1.offset_23|))) (let ((.cse0 (select (select (store (store (store .cse5 v_ArrVal_459 v_ArrVal_453) .cse4 v_ArrVal_466) |v_ULTIMATE.start_main_#t~malloc11#1.base_7| v_ArrVal_468) |ULTIMATE.start_main_~head~0#1.base|) .cse2))) (or (= .cse0 |ULTIMATE.start_main_~head~0#1.base|) (forall ((v_ArrVal_471 (Array Int Int)) (v_ArrVal_467 (Array Int Int))) (= (let ((.cse1 (store (store (store (store |#memory_$Pointer$.offset| |ULTIMATE.start_main_~head~0#1.base| (store .cse3 |v_ULTIMATE.start_main_~x~0#1.offset_23| 0)) v_ArrVal_459 v_ArrVal_458) .cse4 v_ArrVal_471) |v_ULTIMATE.start_main_#t~malloc11#1.base_7| v_ArrVal_467))) (select (select .cse1 .cse0) (select (select .cse1 |ULTIMATE.start_main_~head~0#1.base|) .cse2))) 0))))))))) (not (= (select |#valid| v_ArrVal_459) 0)))) (< |ULTIMATE.start_main_~head~0#1.offset| |v_ULTIMATE.start_main_~x~0#1.offset_23|))) (forall ((|v_ULTIMATE.start_main_~x~0#1.offset_23| Int)) (or (forall ((v_ArrVal_459 Int)) (or (forall ((v_ArrVal_458 (Array Int Int)) (|v_ULTIMATE.start_main_#t~malloc11#1.base_7| Int) (v_ArrVal_448 (Array Int Int)) (v_ArrVal_453 (Array Int Int))) (or (not (= (select (store |#valid| v_ArrVal_459 1) |v_ULTIMATE.start_main_#t~malloc11#1.base_7|) 0)) (forall ((v_ArrVal_468 (Array Int Int)) (v_ArrVal_466 (Array Int Int))) (let ((.cse10 (store |#memory_$Pointer$.base| |ULTIMATE.start_main_~head~0#1.base| (store .cse6 |v_ULTIMATE.start_main_~x~0#1.offset_23| v_ArrVal_459)))) (let ((.cse9 (select (select (store .cse10 v_ArrVal_459 v_ArrVal_448) |ULTIMATE.start_main_~head~0#1.base|) |v_ULTIMATE.start_main_~x~0#1.offset_23|))) (let ((.cse7 (store (store (store .cse10 v_ArrVal_459 v_ArrVal_453) .cse9 v_ArrVal_466) |v_ULTIMATE.start_main_#t~malloc11#1.base_7| v_ArrVal_468))) (let ((.cse8 (select (select .cse7 |ULTIMATE.start_main_~head~0#1.base|) .cse2))) (or (forall ((v_ArrVal_471 (Array Int Int)) (v_ArrVal_467 (Array Int Int))) (= (select (select .cse7 .cse8) (select (select (store (store (store (store |#memory_$Pointer$.offset| |ULTIMATE.start_main_~head~0#1.base| (store .cse3 |v_ULTIMATE.start_main_~x~0#1.offset_23| 0)) v_ArrVal_459 v_ArrVal_458) .cse9 v_ArrVal_471) |v_ULTIMATE.start_main_#t~malloc11#1.base_7| v_ArrVal_467) |ULTIMATE.start_main_~head~0#1.base|) .cse2)) 0)) (= .cse8 |ULTIMATE.start_main_~head~0#1.base|))))))))) (not (= (select |#valid| v_ArrVal_459) 0)))) (< |ULTIMATE.start_main_~head~0#1.offset| |v_ULTIMATE.start_main_~x~0#1.offset_23|))) (forall ((|v_ULTIMATE.start_main_~x~0#1.offset_23| Int)) (or (forall ((v_ArrVal_459 Int)) (or (forall ((v_ArrVal_458 (Array Int Int)) (|v_ULTIMATE.start_main_#t~malloc11#1.base_7| Int) (v_ArrVal_448 (Array Int Int)) (v_ArrVal_453 (Array Int Int))) (or (not (= (select (store |#valid| v_ArrVal_459 1) |v_ULTIMATE.start_main_#t~malloc11#1.base_7|) 0)) (forall ((v_ArrVal_471 (Array Int Int)) (v_ArrVal_467 (Array Int Int))) (let ((.cse12 (store |#memory_$Pointer$.base| |ULTIMATE.start_main_~head~0#1.base| (store .cse6 |v_ULTIMATE.start_main_~x~0#1.offset_23| v_ArrVal_459)))) (let ((.cse13 (select (select (store .cse12 v_ArrVal_459 v_ArrVal_448) |ULTIMATE.start_main_~head~0#1.base|) |v_ULTIMATE.start_main_~x~0#1.offset_23|))) (let ((.cse14 (select (select (store (store (store (store |#memory_$Pointer$.offset| |ULTIMATE.start_main_~head~0#1.base| (store .cse3 |v_ULTIMATE.start_main_~x~0#1.offset_23| 0)) v_ArrVal_459 v_ArrVal_458) .cse13 v_ArrVal_471) |v_ULTIMATE.start_main_#t~malloc11#1.base_7| v_ArrVal_467) |ULTIMATE.start_main_~head~0#1.base|) .cse2))) (or (forall ((v_ArrVal_468 (Array Int Int)) (v_ArrVal_466 (Array Int Int))) (= (select (let ((.cse11 (store (store (store .cse12 v_ArrVal_459 v_ArrVal_453) .cse13 v_ArrVal_466) |v_ULTIMATE.start_main_#t~malloc11#1.base_7| v_ArrVal_468))) (select .cse11 (select (select .cse11 |ULTIMATE.start_main_~head~0#1.base|) .cse2))) .cse14) 0)) (= |ULTIMATE.start_main_~head~0#1.offset| .cse14)))))))) (not (= (select |#valid| v_ArrVal_459) 0)))) (< |ULTIMATE.start_main_~head~0#1.offset| |v_ULTIMATE.start_main_~x~0#1.offset_23|))) (forall ((|v_ULTIMATE.start_main_~x~0#1.offset_23| Int)) (or (forall ((v_ArrVal_459 Int)) (or (not (= (select |#valid| v_ArrVal_459) 0)) (forall ((v_ArrVal_458 (Array Int Int)) (|v_ULTIMATE.start_main_#t~malloc11#1.base_7| Int) (v_ArrVal_448 (Array Int Int)) (v_ArrVal_453 (Array Int Int))) (or (not (= (select (store |#valid| v_ArrVal_459 1) |v_ULTIMATE.start_main_#t~malloc11#1.base_7|) 0)) (forall ((v_ArrVal_471 (Array Int Int)) (v_ArrVal_467 (Array Int Int))) (let ((.cse17 (store |#memory_$Pointer$.base| |ULTIMATE.start_main_~head~0#1.base| (store .cse6 |v_ULTIMATE.start_main_~x~0#1.offset_23| v_ArrVal_459)))) (let ((.cse18 (select (select (store .cse17 v_ArrVal_459 v_ArrVal_448) |ULTIMATE.start_main_~head~0#1.base|) |v_ULTIMATE.start_main_~x~0#1.offset_23|))) (let ((.cse16 (store (store (store (store |#memory_$Pointer$.offset| |ULTIMATE.start_main_~head~0#1.base| (store .cse3 |v_ULTIMATE.start_main_~x~0#1.offset_23| 0)) v_ArrVal_459 v_ArrVal_458) .cse18 v_ArrVal_471) |v_ULTIMATE.start_main_#t~malloc11#1.base_7| v_ArrVal_467))) (let ((.cse15 (select (select .cse16 |ULTIMATE.start_main_~head~0#1.base|) .cse2))) (or (= |ULTIMATE.start_main_~head~0#1.offset| .cse15) (forall ((v_ArrVal_468 (Array Int Int)) (v_ArrVal_466 (Array Int Int))) (= (select (select .cse16 (select (select (store (store (store .cse17 v_ArrVal_459 v_ArrVal_453) .cse18 v_ArrVal_466) |v_ULTIMATE.start_main_#t~malloc11#1.base_7| v_ArrVal_468) |ULTIMATE.start_main_~head~0#1.base|) .cse2)) .cse15) 0)))))))))))) (< |ULTIMATE.start_main_~head~0#1.offset| |v_ULTIMATE.start_main_~x~0#1.offset_23|))))))
(check-sat)
(exit)
